
  22    4
  10   10   10   10

   0   0   0   0   0   4 2 3 4 5 
   5  10  10  10  10   3 10 8 6 
   4  10  10  10  10   3 10 8 6 
   9  10  10  10  10   2 10 7 
   6  10  10  10  10   4 15 14 12 11 
   9  10  10  10  10   3 14 11 9 
   9  10  10  10  10   3 15 11 9 
   8  10  10  10  10   5 18 15 14 13 12 
   9  10  10  10  10   3 18 13 12 
   6  10  10  10  10   3 18 14 12 
   7  10  10  10  10   2 18 13 
   7  10  10  10  10   2 19 17 
   9  10  10  10  10   2 17 16 
  10  10  10  10  10   2 19 16 
   5  10  10  10  10   2 19 16 
   6  10  10  10  10   2 21 20 
   9  10  10  10  10   2 21 20 
   6  10  10  10  10   1 19 
   7  10  10  10  10   1 20 
   6  10  10  10  10   1 22
   9  10  10  10  10   1 22
   0   0   0   0   0   0 
